GdFeO3 
1.0
  7.632952   0.000000   0.000000 
  0.000000   5.585546  -0.000000 
  0.000000   0.000000   5.308293 
Gd Fe O
4 4 12
Direct
  0.249818   0.064719   0.017330 
  0.749789   0.935335   0.982588 
  0.749812   0.435333   0.517309 
  0.249843   0.564711   0.482593 
  1.000066   0.500611   0.999957 
  1.000061   0.000595   0.499986 
  0.500034   0.499441   0.000009 
  0.499999   0.999428   0.499979 
  0.250077   0.464855   0.894507 
  0.750056   0.535278   0.105579 
  0.750015   0.035292   0.394557 
  0.249966   0.964811   0.605611 
  0.054721   0.301568   0.303914 
  0.945131   0.698289   0.696064 
  0.945037   0.198324   0.804142 
  0.054554   0.801646   0.196265 
  0.554552   0.698550   0.696274 
  0.445014   0.301853   0.304177 
  0.445006   0.801830   0.196114 
  0.554086   0.198401   0.804118 
